certificates/rado_a7_c289_N41.cnf
c Rad2 upper bound instance: x1 + 7*x2 - x3 = 289, interval [1,41]
p cnf 41 258
1 3 41 0
-1 -3 -41 0
2 4 41 0
-2 -4 -41 0
3 5 41 0
-3 -5 -41 0
4 6 41 0
-4 -6 -41 0
5 7 41 0
-5 -7 -41 0
6 8 41 0
-6 -8 -41 0
7 9 41 0
-7 -9 -41 0
1 10 40 0
-1 -10 -40 0
8 10 41 0
-8 -10 -41 0
2 11 40 0
-2 -11 -40 0
9 11 41 0
-9 -11 -41 0
3 12 40 0
-3 -12 -40 0
10 12 41 0
-10 -12 -41 0
4 13 40 0
-4 -13 -40 0
11 13 41 0
-11 -13 -41 0
5 14 40 0
-5 -14 -40 0
12 14 41 0
-12 -14 -41 0
6 15 40 0
-6 -15 -40 0
13 15 41 0
-13 -15 -41 0
7 16 40 0
-7 -16 -40 0
14 16 41 0
-14 -16 -41 0
1 17 39 0
-1 -17 -39 0
8 17 40 0
-8 -17 -40 0
15 17 41 0
-15 -17 -41 0
2 18 39 0
-2 -18 -39 0
9 18 40 0
-9 -18 -40 0
16 18 41 0
-16 -18 -41 0
3 19 39 0
-3 -19 -39 0
10 19 40 0
-10 -19 -40 0
17 19 41 0
-17 -19 -41 0
4 20 39 0
-4 -20 -39 0
11 20 40 0
-11 -20 -40 0
18 20 41 0
-18 -20 -41 0
5 21 39 0
-5 -21 -39 0
12 21 40 0
-12 -21 -40 0
19 21 41 0
-19 -21 -41 0
6 22 39 0
-6 -22 -39 0
13 22 40 0
-13 -22 -40 0
20 22 41 0
-20 -22 -41 0
7 23 39 0
-7 -23 -39 0
14 23 40 0
-14 -23 -40 0
21 23 41 0
-21 -23 -41 0
1 24 38 0
-1 -24 -38 0
8 24 39 0
-8 -24 -39 0
15 24 40 0
-15 -24 -40 0
22 24 41 0
-22 -24 -41 0
2 25 38 0
-2 -25 -38 0
9 25 39 0
-9 -25 -39 0
16 25 40 0
-16 -25 -40 0
23 25 41 0
-23 -25 -41 0
3 26 38 0
-3 -26 -38 0
10 26 39 0
-10 -26 -39 0
17 26 40 0
-17 -26 -40 0
24 26 41 0
-24 -26 -41 0
4 27 38 0
-4 -27 -38 0
11 27 39 0
-11 -27 -39 0
18 27 40 0
-18 -27 -40 0
25 27 41 0
-25 -27 -41 0
5 28 38 0
-5 -28 -38 0
12 28 39 0
-12 -28 -39 0
19 28 40 0
-19 -28 -40 0
26 28 41 0
-26 -28 -41 0
6 29 38 0
-6 -29 -38 0
13 29 39 0
-13 -29 -39 0
20 29 40 0
-20 -29 -40 0
27 29 41 0
-27 -29 -41 0
7 30 38 0
-7 -30 -38 0
14 30 39 0
-14 -30 -39 0
21 30 40 0
-21 -30 -40 0
28 30 41 0
-28 -30 -41 0
1 31 37 0
-1 -31 -37 0
8 31 38 0
-8 -31 -38 0
15 31 39 0
-15 -31 -39 0
22 31 40 0
-22 -31 -40 0
29 31 41 0
-29 -31 -41 0
2 32 37 0
-2 -32 -37 0
9 32 38 0
-9 -32 -38 0
16 32 39 0
-16 -32 -39 0
23 32 40 0
-23 -32 -40 0
30 32 41 0
-30 -32 -41 0
3 33 37 0
-3 -33 -37 0
10 33 38 0
-10 -33 -38 0
17 33 39 0
-17 -33 -39 0
24 33 40 0
-24 -33 -40 0
31 33 41 0
-31 -33 -41 0
4 34 37 0
-4 -34 -37 0
11 34 38 0
-11 -34 -38 0
18 34 39 0
-18 -34 -39 0
25 34 40 0
-25 -34 -40 0
32 34 41 0
-32 -34 -41 0
5 35 37 0
-5 -35 -37 0
12 35 38 0
-12 -35 -38 0
19 35 39 0
-19 -35 -39 0
26 35 40 0
-26 -35 -40 0
33 35 41 0
-33 -35 -41 0
6 36 37 0
-6 -36 -37 0
13 36 38 0
-13 -36 -38 0
20 36 39 0
-20 -36 -39 0
27 36 40 0
-27 -36 -40 0
34 36 41 0
-34 -36 -41 0
7 37 0
-7 -37 0
14 37 38 0
-14 -37 -38 0
21 37 39 0
-21 -37 -39 0
28 37 40 0
-28 -37 -40 0
35 37 41 0
-35 -37 -41 0
1 36 38 0
-1 -36 -38 0
8 37 38 0
-8 -37 -38 0
15 38 0
-15 -38 0
22 38 39 0
-22 -38 -39 0
29 38 40 0
-29 -38 -40 0
36 38 41 0
-36 -38 -41 0
2 36 39 0
-2 -36 -39 0
9 37 39 0
-9 -37 -39 0
16 38 39 0
-16 -38 -39 0
23 39 0
-23 -39 0
30 39 40 0
-30 -39 -40 0
37 39 41 0
-37 -39 -41 0
3 36 40 0
-3 -36 -40 0
10 37 40 0
-10 -37 -40 0
17 38 40 0
-17 -38 -40 0
24 39 40 0
-24 -39 -40 0
31 40 0
-31 -40 0
38 40 41 0
-38 -40 -41 0
4 36 41 0
-4 -36 -41 0
11 37 41 0
-11 -37 -41 0
18 38 41 0
-18 -38 -41 0
25 39 41 0
-25 -39 -41 0
32 40 41 0
-32 -40 -41 0
39 41 0
-39 -41 0
