certificates/rado_a7_c289_N41.drat
-41 0
39 0
-23 0
21 0
25 0
-5 0
-37 0
-9 0
3 0
7 0
35 0
11 0
-19 0
-27 0
17 0
29 0
-1 0
-33 0
-13 0
31 0
15 0
0
